93 30 60 42 
26 91 57 12 
97 56 
99 38 27 19 53 48 47 75 66 83 2 4 
80 
94 41 
84 31 96 65 13 73 100 
6 59 
62 33 
67 74 46 
7 44 24 9 87 40 20 82 43 32 21 95 34 3 16 54 68 
18 64 88 17 
86 
51 
15 23 11 79 52 85 71 36 55 63 50 77 49 
28 81 8 29 10 5 
35 76 92 45 69 70 37 89 90 1 22 14 72 78 25 58 98 39 61 
